5 5
7 1 3 6 5 1 5 3 19 4 8 2 2 5 9 2 5 14 2 5 5 4 6 3 6 2 3 1 11 5 16 5 3 11 1 18 4 8 5 18 2 13 2 4 12 1 15 2 3 5 4 10
5 2 2 8 1 4 1 5 9 4 5 16 3 12 2 7 1 3 3 3 10 1 19 5 20 5 5 17 1 19 4 10 2 10 3 17
5 5 4 9 3 11 1 4 5 13 2 11 5 4 5 1 19 2 4 5 11 3 12 2 2 10 3 15 1 4 14 5 2 11 1 12 4 17 5 9 3 10
4 4 2 17 4 3 5 4 1 16 4 5 9 2 15 3 15 4 6 2 3 17 5 10 2 4 18 2 4
4 4 2 16 1 20 4 9 3 5 3 3 19 4 14 2 4 5 2 7 5 3 1 10 3 12 4 6 5 1 2 3 7 2 10 5 16 4 17